RT is False
Default write of storage_offers_DA.csv just to have a file (but constraint should be inactive)
Reading model...
...model read.
creating competitive generators file...
...competitive generators recorded.
Loading data...
.. day-ahead data with real-time VRE data read.
Compiling instance...
...instance created.
Creating Offer Mitigation (model will solve as dispatch if TRUE)...
...storage offer mitigation file created
Converting model to MPEC...
...converted
MIP
NOTE: initial MIP solve with only storage competitive to get feasible solution
Solving...

Welcome to IBM(R) ILOG(R) CPLEX(R) Interactive Optimizer 12.9.0.0
  with Simplex, Mixed Integer & Barrier Optimizers
5725-A06 5725-A29 5724-Y48 5724-Y49 5724-Y54 5724-Y55 5655-Y21
Copyright IBM Corp. 1988, 2019.  All Rights Reserved.

Type 'help' for a list of available commands.
Type 'help' followed by a command name for more
information on commands.

CPLEX> Logfile 'cplex.log' closed.
Logfile 'C:\Users\Luke\Desktop\competitiveMPEC_1.16\logs\tmps4by2v14.cplex.log' open.
CPLEX> New value for parallel optimization mode: -1
CPLEX> New value for mixed integer optimality gap tolerance: 0.01
CPLEX> New value for feasibility tolerance: 1e-05
CPLEX> New value for deterministic time limit in ticks: 250000
CPLEX> Problem 'C:\Users\Luke\Desktop\competitiveMPEC_1.16\logs\tmp44kxzm1y.pyomo.lp' read.
Read time = 0.19 sec. (13.86 ticks)
CPLEX> Problem name         : C:\Users\Luke\Desktop\competitiveMPEC_1.16\logs\tmp44kxzm1y.pyomo.lp
Objective sense      : Maximize
Variables            :   53321  [Nneg: 49,  Box: 21806,  Free: 4368,
                                 Binary: 27098]
Objective nonzeros   :    8980
Linear constraints   :  122164  [Less: 40983,  Greater: 58612,  Equal: 22569]
  Nonzeros           :  288505
  RHS nonzeros       :   66982

Variables            : Min LB: -5000.000        Max UB: 5000.000       
Objective nonzeros   : Min   : 0.2250000        Max   : 734.2667       
Linear constraints   :
  Nonzeros           : Min   : 0.2250000        Max   : 2910000.       
  RHS nonzeros       : Min   : 0.2250000        Max   : 3000000.       
CPLEX> CPXPARAM_Parallel                                -1
CPXPARAM_Simplex_Tolerances_Feasibility          1.0000000000000001e-05
CPXPARAM_DetTimeLimit                            250000
CPXPARAM_MIP_Tolerances_MIPGap                   0.01
Tried aggregator 3 times.
MIP Presolve eliminated 88076 rows and 18932 columns.
MIP Presolve added 3349 rows and 0 columns.
MIP Presolve modified 24520 coefficients.
Aggregator did 12840 substitutions.
Reduced MIP has 24597 rows, 20993 columns, and 68913 nonzeros.
Reduced MIP has 8294 binaries, 0 generals, 0 SOSs, and 0 indicators.
Presolve time = 0.22 sec. (166.20 ticks)
Probing fixed 418 vars, tightened 5691 bounds.
Probing time = 0.05 sec. (20.87 ticks)
Tried aggregator 2 times.
MIP Presolve eliminated 945 rows and 850 columns.
MIP Presolve modified 3011 coefficients.
Aggregator did 44 substitutions.
Reduced MIP has 23608 rows, 20099 columns, and 66036 nonzeros.
Reduced MIP has 7869 binaries, 0 generals, 0 SOSs, and 0 indicators.
Presolve time = 0.09 sec. (85.93 ticks)
Probing fixed 5 vars, tightened 202 bounds.
Probing time = 0.08 sec. (23.67 ticks)
Clique table members: 39926.
MIP emphasis: balance optimality and feasibility.
MIP search method: dynamic search.
Parallel mode: opportunistic, using up to 24 threads.
Root relaxation solution time = 0.38 sec. (580.61 ticks)

        Nodes                                         Cuts/
   Node  Left     Objective  IInf  Best Integer    Best Bound    ItCnt     Gap

      0     0    23786.2879    74                  23786.2879     5654         
*     0+    0                        23786.2879    23786.2879             0.00%
      0     0        cutoff          23786.2879    23786.2879     5654    0.00%
Elapsed time = 1.34 sec. (1139.73 ticks, tree = 0.01 MB, solutions = 1)

Root node processing (before b&c):
  Real time             =    1.34 sec. (1141.65 ticks)
Parallel b&c, 24 threads:
  Real time             =    0.00 sec. (0.00 ticks)
  Sync time (average)   =    0.00 sec.
  Wait time (average)   =    0.00 sec.
                          ------------
Total (root+branch&cut) =    1.34 sec. (1141.65 ticks)

Solution pool: 1 solution saved.

MIP - Integer optimal solution:  Objective =  2.3786287902e+04
Solution time =    1.36 sec.  Iterations = 5654  Nodes = 0
Deterministic time = 1141.80 ticks  (839.56 ticks/sec)

CPLEX> Incumbent solution written to file 'C:\Users\Luke\Desktop\competitiveMPEC_1.16\logs\tmp_8495fbf.cplex.sol'.
CPLEX> NOTE: no warmstart specified for MIP iteration, default behavior is true
MIP
NOTE: resolving with all competitive generators using storage-only solution to warmstart
Solving...

Welcome to IBM(R) ILOG(R) CPLEX(R) Interactive Optimizer 12.9.0.0
  with Simplex, Mixed Integer & Barrier Optimizers
5725-A06 5725-A29 5724-Y48 5724-Y49 5724-Y54 5724-Y55 5655-Y21
Copyright IBM Corp. 1988, 2019.  All Rights Reserved.

Type 'help' for a list of available commands.
Type 'help' followed by a command name for more
information on commands.

CPLEX> Logfile 'cplex.log' closed.
Logfile 'C:\Users\Luke\Desktop\competitiveMPEC_1.16\logs\tmp8psn9njh.cplex.log' open.
CPLEX> New value for parallel optimization mode: -1
CPLEX> New value for mixed integer optimality gap tolerance: 0.01
CPLEX> New value for feasibility tolerance: 1e-05
CPLEX> New value for deterministic time limit in ticks: 250000
CPLEX> Problem 'C:\Users\Luke\Desktop\competitiveMPEC_1.16\logs\tmp_7gs2no3.pyomo.lp' read.
Read time = 0.19 sec. (13.86 ticks)
CPLEX> MIP start file 'C:\Users\Luke\Desktop\competitiveMPEC_1.16\logs\tmpexv0mau1.cplex.mst' read.
CPLEX> Problem name         : C:\Users\Luke\Desktop\competitiveMPEC_1.16\logs\tmp_7gs2no3.pyomo.lp
Objective sense      : Maximize
Variables            :   53321  [Nneg: 49,  Box: 21806,  Free: 4368,
                                 Binary: 27098]
Objective nonzeros   :    8956
Linear constraints   :  122164  [Less: 40983,  Greater: 58612,  Equal: 22569]
  Nonzeros           :  288505
  RHS nonzeros       :   66982

Variables            : Min LB: -5000.000        Max UB: 5000.000       
Objective nonzeros   : Min   : 0.2250000        Max   : 722.0000       
Linear constraints   :
  Nonzeros           : Min   : 0.2250000        Max   : 2910000.       
  RHS nonzeros       : Min   : 0.2250000        Max   : 3000000.       
CPLEX> CPXPARAM_Parallel                                -1
CPXPARAM_Simplex_Tolerances_Feasibility          1.0000000000000001e-05
CPXPARAM_DetTimeLimit                            250000
CPXPARAM_MIP_Tolerances_MIPGap                   0.01
Warning:  No solution found from 1 MIP starts.
Retaining values of one MIP start for possible repair.
Tried aggregator 3 times.
MIP Presolve eliminated 88076 rows and 18932 columns.
MIP Presolve added 3349 rows and 0 columns.
MIP Presolve modified 24520 coefficients.
Aggregator did 12840 substitutions.
Reduced MIP has 24597 rows, 20993 columns, and 68913 nonzeros.
Reduced MIP has 8294 binaries, 0 generals, 0 SOSs, and 0 indicators.
Presolve time = 0.23 sec. (166.20 ticks)
Probing fixed 418 vars, tightened 5691 bounds.
Probing time = 0.05 sec. (20.87 ticks)
Tried aggregator 2 times.
MIP Presolve eliminated 945 rows and 850 columns.
MIP Presolve modified 3011 coefficients.
Aggregator did 44 substitutions.
Reduced MIP has 23608 rows, 20099 columns, and 66036 nonzeros.
Reduced MIP has 7869 binaries, 0 generals, 0 SOSs, and 0 indicators.
Presolve time = 0.09 sec. (85.93 ticks)
Probing fixed 5 vars, tightened 202 bounds.
Probing time = 0.08 sec. (23.67 ticks)
Clique table members: 39926.
MIP emphasis: balance optimality and feasibility.
MIP search method: dynamic search.
Parallel mode: opportunistic, using up to 24 threads.
Root relaxation solution time = 0.42 sec. (645.23 ticks)

        Nodes                                         Cuts/
   Node  Left     Objective  IInf  Best Integer    Best Bound    ItCnt     Gap

      0     0   132021.6799   151                 132021.6799     6086         
      0     0   127627.0267   109                   Cuts: 148     6327         
      0     0   127399.8725   102                    Cuts: 69     6391         
      0     0   127363.8832   101                    Cuts: 24     6410         
      0     0   127337.6393   106                Flowcuts: 14     6421         
Repair heuristic found nothing.
      0    13   110955.6823    73                     Cuts: 3     6574         
Elapsed time = 5.02 sec. (3582.37 ticks, tree = 0.02 MB, solutions = 0)
    295   170   113188.7610    44                 124729.8513     8647         
    705   457   116142.6535    48                 124729.8513    12029         
   1004   863   112151.9566    56                 124729.8513    19123         
   1592  1054   117169.2482    53                 124729.8513    30228         
   2126  1133   106560.8736    26                 124729.8513    39646         
   2589  1350    93211.4509    47                 124729.8513    47773         
   3055  1679   -57803.0339   107                 124729.8513    60272         
   3468  2104   105476.0285    67                 124729.8513    75575         
   3884  2257   109424.3437    18                 123800.0064    81155         
*  4597+ 2096                        92057.5042   123800.0064            34.48%
Elapsed time = 11.97 sec. (6136.99 ticks, tree = 46.27 MB, solutions = 1)
   6582  2001        cutoff         105670.3211   122010.8397   132418   15.46%
   7465  2536        cutoff         105670.3211   121275.3440   169116   14.77%
   7848    52   117014.9132    27   105670.3211   119137.6573   171237   12.74%
   8628   113        cutoff         105670.3211   118249.3258   176807   11.90%
   9705   518   109395.6612    42   105670.3211   118074.3719   184741   11.74%
  12486  1520        cutoff         105670.3211   117078.7643   197573   10.80%
  15228  5026   109475.4210    96   105670.3211   116263.4068   237627   10.02%
  17641  6374   106559.7810    61   105670.3211   115554.7086   255726    9.35%
  20267  9062   109456.8139    60   105670.3211   115053.6718   297694    8.88%
  22457  9412   107439.2873     8   105670.3211   114554.5834   302879    8.41%
Elapsed time = 42.95 sec. (18927.48 ticks, tree = 73.52 MB, solutions = 3)
  22846 10761   108415.3519    42   105670.3211   114453.3429   333357    8.31%
* 22943 10752      integral     0   107439.2873   114453.3429   332999    6.53%
  24575  7924   112283.1956    63   107439.2873   114411.7927   348584    6.49%
  27016  9027        cutoff         107439.2873   113662.4870   389186    5.79%
  29267  9382   111232.1683    49   107439.2873   112617.8943   408996    4.82%
  31510 10740   108644.6127    74   107439.2873   112285.7948   479436    4.51%
  34187 11271   107533.6614    60   107439.2873   111923.5620   495823    4.17%
  36949 11802   110064.9605    35   107439.2873   111653.7586   516579    3.92%
  39478 12667   107517.1252    51   107439.2873   111014.9049   559288    3.33%
  40925 12885   107505.6509    55   107439.2873   110981.8970   569918    3.30%
  41514 13644   109777.7754    28   107439.2873   110840.8951   609592    3.17%
Elapsed time = 69.75 sec. (28466.70 ticks, tree = 103.55 MB, solutions = 4)
  43225 14565   109597.9704    30   107439.2873   110757.0535   670407    3.09%
  45786 14345   107776.6326    57   107439.2873   110417.0671   659123    2.77%
  48301 15148        cutoff         107439.2873   110052.1204   737882    2.43%
  50715 14981   107532.8722    52   107439.2873   109900.3493   710346    2.29%
  53175 14957        cutoff         107439.2873   109653.6295   870267    2.06%
  55646 14766    infeasible         107439.2873   109484.3380   889633    1.90%
  57703 15120        cutoff         107439.2873   109484.3380   856579    1.90%
  59099 14831   108385.6173    56   107439.2873   109377.5779   890223    1.80%
  59928 14275    infeasible         107439.2873   109340.2080   934657    1.77%
  60935 14035    infeasible         107439.2873   109164.6890   962838    1.61%
Elapsed time = 94.89 sec. (38009.64 ticks, tree = 103.18 MB, solutions = 4)
  62872 14173   108433.4354    57   107439.2873   108910.9768   951292    1.37%
  65226 14138    infeasible         107439.2873   108750.3877   948307    1.22%
  67348 12470        cutoff         107439.2873   108676.0091  1033746    1.15%
  68607 12445        cutoff         107439.2873   108676.0091  1034493    1.15%
  69322 11393        cutoff         107439.2873   108676.0091  1071830    1.15%

Clique cuts applied:  1
Cover cuts applied:  34
Implied bound cuts applied:  80
Flow cuts applied:  120
Mixed integer rounding cuts applied:  6
Zero-half cuts applied:  2
Lift and project cuts applied:  7
Gomory fractional cuts applied:  6

Root node processing (before b&c):
  Real time             =    4.47 sec. (3540.11 ticks)
Parallel b&c, 24 threads:
  Real time             =   96.83 sec. (39856.19 ticks)
  Sync time (average)   =    1.11 sec.
  Wait time (average)   =    0.08 sec.
                          ------------
Total (root+branch&cut) =  101.30 sec. (43396.29 ticks)

Solution pool: 4 solutions saved.

MIP - Integer optimal, tolerance (0.01/1e-06):  Objective =  1.0743928726e+05
Current MIP best bound =  1.0851362959e+05 (gap = 1074.34, 1.00%)
Solution time =  101.30 sec.  Iterations = 1080706  Nodes = 69391 (11114)
Deterministic time = 43396.45 ticks  (428.41 ticks/sec)

CPLEX> Incumbent solution written to file 'C:\Users\Luke\Desktop\competitiveMPEC_1.16\logs\tmp5v4wtwwv.cplex.sol'.
CPLEX> Exporting results... 
